$ This puzzle obtained from: https://teachinglondoncomputing.org/cut-hive-puzzles/

language ESSENCE' 1.0

letting height be 4
letting length be 3
letting numblocks be 4

letting blocks be 
[
    [1,0,2,2],
    [1,1,3,3],
    [1,3,3,4],
]

letting fixed be
[
    [0,0,0,2],
    [0,4,0,0],
    [2,0,0,0],
]